utils/resource/single_frontier.tsp
NAME : single_frontier
TYPE : ATSP
DIMENSION : 4
EDGE_WEIGHT_TYPE : EXPLICIT
EDGE_WEIGHT_FORMAT : FULL_MATRIX
EDGE_WEIGHT_SECTION
0 767 422 100000 
100000 0 311 94 
100000 311 0 216 
0 100000 100000 0 
EOF