utils/resource/single_frontier.txt
NAME : single_frontier.827.tour
COMMENT : Length = 827
COMMENT : Found by LKH [Keld Helsgaun] Wed Jun 28 19:06:20 2023
TYPE : TOUR
DIMENSION : 4
TOUR_SECTION
1
3
2
4
-1
EOF
